(declare-const |phi_y:36:48:85| Int)
(declare-const |havoc:11:35:46:83| Int)
(declare-const |havoc:6:21:40:77| Int)
(declare-const |havoc:9:26:39:76| Int)
(declare-const |phi_x:37:47:84| Int)
(declare-const |phi_y:29:34:45:82| Int)
(declare-const |phi_tmp___1:25:50:52:87| Int)
(declare-const havoc Int)
(declare-const |havoc:12:38:75| Int)
(declare-const |havoc:2| Int)
(declare-const |phi_x:24:27:31:42:79| Int)
(declare-const |havoc:13:49:86| Int)
(declare-const |phi_x:30:33:44:81| Int)
(declare-const |phi_y:23:28:32:43:80| Int)
(declare-const |havoc:7:22:41:78| Int)
(declare-const |phi_tmp___1:51:53:88| Int)
(assert (and (< (+ havoc -100) 0) (< (+ |havoc:2| -100) 0)
               (or (and (not (= |havoc:12:38:75| 0))
                          (not (= |havoc:9:26:39:76| 0))
                          (or (and (< (+ |havoc:6:21:40:77| -100) 0)
                                     (or (and (<= (+ (- |havoc:7:22:41:78|)
                                                       100) 0)
                                                (= (+ (- |phi_x:24:27:31:42:79|)
                                                        |havoc:6:21:40:77|) 0)
                                                (= (+ (- |phi_y:23:28:32:43:80|)
                                                        |havoc:7:22:41:78|) 0))
                                           (and (< (+ |havoc:7:22:41:78| -100) 0)
                                                  (= (+ (- |phi_x:24:27:31:42:79|)
                                                          |havoc:6:21:40:77|
                                                          1) 0)
                                                  (= (+ (- |phi_y:23:28:32:43:80|)
                                                          |havoc:7:22:41:78|
                                                          1) 0)))
                                     (= (+ (- |phi_x:30:33:44:81|)
                                             |phi_x:24:27:31:42:79|) 0)
                                     (= (+ (- |phi_y:29:34:45:82|)
                                             |phi_y:23:28:32:43:80|) 0))
                                (and (<= (+ (- |havoc:6:21:40:77|) 100) 0)
                                       (= (+ (- |phi_x:30:33:44:81|)
                                               |havoc:6:21:40:77|) 0)
                                       (= (+ (- |phi_y:29:34:45:82|)
                                               |havoc:7:22:41:78|) 0)))
                          (= |havoc:11:35:46:83| 0)
                          (= (+ (- |phi_x:37:47:84|) |phi_x:30:33:44:81|) 0)
                          (= (+ (- |phi_y:36:48:85|) |phi_y:29:34:45:82|) 0))
                     (and (= |havoc:13:49:86| 0)
                            (= (+ (- |phi_x:37:47:84|) havoc) 0)
                            (= (+ (- |phi_y:36:48:85|) |havoc:2|) 0)))
               (or (and (not (= (+ |phi_x:37:47:84| -100) 0))
                          (or (and (not (= (+ |phi_y:36:48:85| -100) 0))
                                     (= (- |phi_tmp___1:25:50:52:87|) 0))
                                (and (= (+ |phi_y:36:48:85| -100) 0)
                                       (= (+ (- |phi_tmp___1:25:50:52:87|) 1) 0)))
                          (= (+ (- |phi_tmp___1:51:53:88|)
                                  |phi_tmp___1:25:50:52:87|) 0))
                     (and (= (+ |phi_x:37:47:84| -100) 0)
                            (= (+ (- |phi_tmp___1:51:53:88|) 1) 0)))
               (= |phi_tmp___1:51:53:88| 0)))
(check-sat)
